p cnf 64 178
1 2 0
-1 -2 0
3 4 0
-3 -4 0
5 6 0
-5 -6 0
7 8 0
-7 -8 0
9 10 0
-9 -10 0
11 12 0
-11 -12 0
13 14 0
-13 -14 0
15 16 0
-15 -16 0
17 18 0
-17 -18 0
-19 1 0
-19 15 0
19 -1 -15 0
-20 2 0
-20 15 0
20 -2 -15 0
-21 1 0
-21 16 0
21 -1 -16 0
-22 2 0
-22 16 0
22 -2 -16 0
-23 3 0
-23 17 0
23 -3 -17 0
-24 4 0
-24 17 0
24 -4 -17 0
-25 3 0
-25 18 0
25 -3 -18 0
-26 4 0
-26 18 0
26 -4 -18 0
-27 5 0
-27 3 0
-27 11 0
27 -5 -3 -11 0
-28 6 0
-28 3 0
-28 11 0
28 -6 -3 -11 0
-29 5 0
-29 3 0
-29 12 0
29 -5 -3 -12 0
-30 6 0
-30 3 0
-30 12 0
30 -6 -3 -12 0
-31 5 0
-31 4 0
-31 11 0
31 -5 -4 -11 0
-32 6 0
-32 4 0
-32 11 0
32 -6 -4 -11 0
-33 5 0
-33 4 0
-33 12 0
33 -5 -4 -12 0
-34 6 0
-34 4 0
-34 12 0
34 -6 -4 -12 0
-35 7 0
35 -7 0
-36 8 0
36 -8 0
-37 9 0
-37 3 0
-37 7 0
37 -9 -3 -7 0
-38 10 0
-38 3 0
-38 7 0
38 -10 -3 -7 0
-39 9 0
-39 3 0
-39 8 0
39 -9 -3 -8 0
-40 10 0
-40 3 0
-40 8 0
40 -10 -3 -8 0
-41 9 0
-41 4 0
-41 7 0
41 -9 -4 -7 0
-42 10 0
-42 4 0
-42 7 0
42 -10 -4 -7 0
-43 9 0
-43 4 0
-43 8 0
43 -9 -4 -8 0
-44 10 0
-44 4 0
-44 8 0
44 -10 -4 -8 0
-45 11 0
-45 7 0
45 -11 -7 0
-46 12 0
-46 7 0
46 -12 -7 0
-47 11 0
-47 8 0
47 -11 -8 0
-48 12 0
-48 8 0
48 -12 -8 0
-49 13 0
-49 9 0
49 -13 -9 0
-50 14 0
-50 9 0
50 -14 -9 0
-51 13 0
-51 10 0
51 -13 -10 0
-52 14 0
-52 10 0
52 -14 -10 0
-53 15 0
-53 5 0
-53 17 0
53 -15 -5 -17 0
-54 16 0
-54 5 0
-54 17 0
54 -16 -5 -17 0
-55 15 0
-55 5 0
-55 18 0
55 -15 -5 -18 0
-56 16 0
-56 5 0
-56 18 0
56 -16 -5 -18 0
-57 15 0
-57 6 0
-57 17 0
57 -15 -6 -17 0
-58 16 0
-58 6 0
-58 17 0
58 -16 -6 -17 0
-59 15 0
-59 6 0
-59 18 0
59 -15 -6 -18 0
-60 16 0
-60 6 0
-60 18 0
60 -16 -6 -18 0
-61 17 0
-61 11 0
61 -17 -11 0
-62 18 0
-62 11 0
62 -18 -11 0
-63 17 0
-63 12 0
63 -17 -12 0
-64 18 0
-64 12 0
64 -18 -12 0
